500
    1   155   155
    2   256   256
    3   396   396
    4   392   392
    5   346   346
    6   386   386
    7   427   427
    8   282   282
    9     8     8
   10    67    67
   11   165   165
   12    91    91
   13   481   481
   14    19    19
   15    95    95
   16   165   165
   17   393   393
   18   112   112
   19   322   322
   20   192   192
   21   495   495
   22   241   241
   23   179   179
   24     9     9
   25    96    96
   26   141   141
   27   256   256
   28   500   500
   29   228   228
   30   341   341
   31    28    28
   32   394   394
   33   145   145
   34    24    24
   35   188   188
   36   484   484
   37   461   461
   38   232   232
   39   390   390
   40   339   339
   41   277   277
   42   139   139
   43    11    11
   44   485   485
   45   156   156
   46   142   142
   47    14    14
   48    58    58
   49   456   456
   50   335   335
   51   136   136
   52   152   152
   53   478   478
   54   290   290
   55   295   295
   56   405   405
   57   305   305
   58   136   136
   59    87    87
   60   470   470
   61    33    33
   62   435   435
   63     7     7
   64   178   178
   65   207   207
   66   454   454
   67   289   289
   68   345   345
   69   300   300
   70   457   457
   71   237   237
   72   311   311
   73   212   212
   74   415   415
   75   280   280
   76   201   201
   77   156   156
   78   160   160
   79   106   106
   80   205   205
   81   151   151
   82    78    78
   83   277   277
   84   379   379
   85   190   190
   86   371   371
   87   273   273
   88    89    89
   89   239   239
   90   320   320
   91    58    58
   92   461   461
   93   109   109
   94    66    66
   95    29    29
   96   106   106
   97   119   119
   98   178   178
   99   252   252
  100   151   151
  101   206   206
  102   473   473
  103   412   412
  104   184   184
  105   493   493
  106   341   341
  107   124   124
  108   443   443
  109    20    20
  110   106   106
  111    75    75
  112   480   480
  113   489   489
  114   468   468
  115   242   242
  116   346   346
  117   144   144
  118    94    94
  119   458   458
  120    57    57
  121   492   492
  122   274   274
  123   278   278
  124   320   320
  125   399   399
  126   123   123
  127   486   486
  128   187   187
  129    51    51
  130   472   472
  131   472   472
  132   455   455
  133   164   164
  134   467   467
  135   350   350
  136   223   223
  137   360   360
  138   314   314
  139   333   333
  140   151   151
  141   345   345
  142   439   439
  143   409   409
  144   313   313
  145    98    98
  146   315   315
  147    11    11
  148   363   363
  149   403   403
  150   212   212
  151   412   412
  152   288   288
  153    26    26
  154   128   128
  155    91    91
  156   259   259
  157    32    32
  158   454   454
  159   282   282
  160   337   337
  161   253   253
  162   329   329
  163   245   245
  164   460   460
  165   430   430
  166   219   219
  167   441   441
  168   392   392
  169    33    33
  170    35    35
  171   185   185
  172   218   218
  173   319   319
  174   440   440
  175   316   316
  176   409   409
  177   230   230
  178   222   222
  179   111   111
  180   136   136
  181   332   332
  182   400   400
  183    48    48
  184   455   455
  185   348   348
  186    67    67
  187   471   471
  188   182   182
  189   120   120
  190   366   366
  191   233   233
  192   360   360
  193   405   405
  194    59    59
  195   452   452
  196    34    34
  197   344   344
  198   390   390
  199   144   144
  200   406   406
  201   497   497
  202   490   490
  203    36    36
  204   391   391
  205   438   438
  206   240   240
  207    16    16
  208   243   243
  209   349   349
  210   113   113
  211   302   302
  212   157   157
  213   187   187
  214   224   224
  215   354   354
  216    46    46
  217   150   150
  218   400   400
  219   301   301
  220   162   162
  221   174   174
  222   247   247
  223   159   159
  224   148   148
  225   445   445
  226   431   431
  227    37    37
  228   365   365
  229    89    89
  230   116   116
  231    62    62
  232    79    79
  233   371   371
  234   217   217
  235   429   429
  236   239   239
  237   109   109
  238   112   112
  239   352   352
  240   409   409
  241    99    99
  242   295   295
  243   256   256
  244   404   404
  245   495   495
  246   448   448
  247   406   406
  248   101   101
  249   273   273
  250   177   177
  251   214   214
  252   466   466
  253   423   423
  254   122   122
  255    43    43
  256   376   376
  257   306   306
  258   485   485
  259    35    35
  260   486   486
  261   145   145
  262   400   400
  263   481   481
  264   101   101
  265   358   358
  266   198   198
  267   368   368
  268   360   360
  269   436   436
  270   391   391
  271   118   118
  272   329   329
  273   149   149
  274   402   402
  275   414   414
  276   103   103
  277   117   117
  278    53    53
  279   204   204
  280   411   411
  281   251   251
  282    84    84
  283   224   224
  284   494   494
  285   387   387
  286   107   107
  287   427   427
  288   441   441
  289     1     1
  290   374   374
  291    46    46
  292   440   440
  293    10    10
  294   431   431
  295   183   183
  296   429   429
  297   196   196
  298   334   334
  299   398   398
  300    60    60
  301   173   173
  302   394   394
  303   264   264
  304   292   292
  305    81    81
  306   401   401
  307   372   372
  308   241   241
  309   281   281
  310    58    58
  311   348   348
  312    82    82
  313    50    50
  314   247   247
  315   447   447
  316   443   443
  317   445   445
  318   473   473
  319   341   341
  320   239   239
  321   209   209
  322   220   220
  323   166   166
  324   303   303
  325   290   290
  326   384   384
  327   485   485
  328   355   355
  329   173   173
  330   450   450
  331   386   386
  332   299   299
  333   270   270
  334    65    65
  335   387   387
  336   438   438
  337   497   497
  338    72    72
  339   293   293
  340   299   299
  341   194   194
  342   424   424
  343   225   225
  344   352   352
  345   324   324
  346   436   436
  347   133   133
  348   164   164
  349   254   254
  350   201   201
  351   494   494
  352   494   494
  353   174   174
  354   205   205
  355   201   201
  356   420   420
  357   154   154
  358    76    76
  359    91    91
  360    58    58
  361   499   499
  362    69    69
  363   448   448
  364    59    59
  365    96    96
  366    31    31
  367    80    80
  368   119   119
  369   344   344
  370   363   363
  371   317   317
  372   375   375
  373    58    58
  374    31    31
  375   385   385
  376    46    46
  377   375   375
  378    97    97
  379    25    25
  380    21    21
  381   422   422
  382   274   274
  383   286   286
  384   377   377
  385    84    84
  386   271   271
  387   188   188
  388   434   434
  389   245   245
  390    58    58
  391   297   297
  392   103   103
  393   183   183
  394    82    82
  395   433   433
  396   466   466
  397    50    50
  398   428   428
  399   257   257
  400    26    26
  401    46    46
  402   342   342
  403   368   368
  404   187   187
  405   254   254
  406   190   190
  407   198   198
  408    96    96
  409    10    10
  410   116   116
  411    16    16
  412   146   146
  413   480   480
  414   489   489
  415   205   205
  416   157   157
  417   275   275
  418   368   368
  419   421   421
  420   121   121
  421   152   152
  422   279   279
  423   187   187
  424    75    75
  425   378   378
  426   427   427
  427   304   304
  428   487   487
  429   485   485
  430    85    85
  431    67    67
  432   296   296
  433   264   264
  434   277   277
  435   467   467
  436   467   467
  437   329   329
  438   385   385
  439   398   398
  440   121   121
  441   133   133
  442    95    95
  443   500   500
  444   336   336
  445   457   457
  446   477   477
  447   331   331
  448   366   366
  449   167   167
  450   278   278
  451   267   267
  452   421   421
  453   451   451
  454   450   450
  455   117   117
  456   243   243
  457   171   171
  458   418   418
  459    74    74
  460   142   142
  461   385   385
  462   390   390
  463    38    38
  464     9     9
  465   240   240
  466   444   444
  467   246   246
  468   257   257
  469   241   241
  470   149   149
  471   311   311
  472   318   318
  473   269   269
  474   268   268
  475   441   441
  476   454   454
  477    52    52
  478   451   451
  479    72    72
  480   200   200
  481   353   353
  482    47    47
  483   107   107
  484   147   147
  485   453   453
  486   116   116
  487   419   419
  488   430   430
  489   362   362
  490   173   173
  491   206   206
  492   464   464
  493   305   305
  494   174   174
  495    77    77
  496   209   209
  497   268   268
  498    39    39
  499    20    20
  500   319   319
108488
